0 18
0 23
0 29
0 30
1 8
1 10
1 14
1 18
1 24
2 7
2 22
2 29
3 22
4 9
5 22
6 23
7 10
7 30
8 15
8 29
8 31
9 20
9 23
9 28
13 14
15 20
16 17
16 29
17 24
17 26
18 19
18 21
18 23
19 26
20 27
22 23
22 31
24 25
25 30
27 30
